c nIsolatedPIs 10
c maxPI 22
p cnf 71 148
c gate 23 1 12 0
1 -23 0
12 -23 0
-1 -12 23 0
c gate 24 3 -14 0
3 -24 0
-14 -24 0
-3 14 24 0
c gate 25 23 24 0
23 -25 0
24 -25 0
-23 -24 25 0
c gate 26 -11 -22 0
-11 -26 0
-22 -26 0
11 22 26 0
c gate 27 10 21 0
10 -27 0
21 -27 0
-10 -21 27 0
c gate 28 -9 -20 0
-9 -28 0
-20 -28 0
9 20 28 0
c gate 29 -10 -21 0
-10 -29 0
-21 -29 0
10 21 29 0
c gate 30 -28 -29 0
-28 -30 0
-29 -30 0
28 29 30 0
c gate 31 -8 -19 0
-8 -31 0
-19 -31 0
8 19 31 0
c gate 32 7 18 0
7 -32 0
18 -32 0
-7 -18 32 0
c gate 33 -5 -16 0
-5 -33 0
-16 -33 0
5 16 33 0
c gate 34 -4 -15 0
-4 -34 0
-15 -34 0
4 15 34 0
c gate 35 -33 -34 0
-33 -35 0
-34 -35 0
33 34 35 0
c gate 36 4 15 0
4 -36 0
15 -36 0
-4 -15 36 0
c gate 37 -3 -23 0
-3 -37 0
-23 -37 0
3 23 37 0
c gate 38 14 -37 0
14 -38 0
-37 -38 0
-14 37 38 0
c gate 39 -36 -38 0
-36 -39 0
-38 -39 0
36 38 39 0
c gate 40 35 -39 0
35 -40 0
-39 -40 0
-35 39 40 0
c gate 41 6 17 0
6 -41 0
17 -41 0
-6 -17 41 0
c gate 42 5 16 0
5 -42 0
16 -42 0
-5 -16 42 0
c gate 43 -41 -42 0
-41 -43 0
-42 -43 0
41 42 43 0
c gate 44 -40 43 0
-40 -44 0
43 -44 0
40 -43 44 0
c gate 45 -6 -17 0
-6 -45 0
-17 -45 0
6 17 45 0
c gate 46 -7 -18 0
-7 -46 0
-18 -46 0
7 18 46 0
c gate 47 -45 -46 0
-45 -47 0
-46 -47 0
45 46 47 0
c gate 48 -44 47 0
-44 -48 0
47 -48 0
44 -47 48 0
c gate 49 -32 -48 0
-32 -49 0
-48 -49 0
32 48 49 0
c gate 50 -31 -49 0
-31 -50 0
-49 -50 0
31 49 50 0
c gate 51 8 19 0
8 -51 0
19 -51 0
-8 -19 51 0
c gate 52 9 20 0
9 -52 0
20 -52 0
-9 -20 52 0
c gate 53 -51 -52 0
-51 -53 0
-52 -53 0
51 52 53 0
c gate 54 -50 53 0
-50 -54 0
53 -54 0
50 -53 54 0
c gate 55 30 -54 0
30 -55 0
-54 -55 0
-30 54 55 0
c gate 56 -27 -55 0
-27 -56 0
-55 -56 0
27 55 56 0
c gate 57 -26 -56 0
-26 -57 0
-56 -57 0
26 56 57 0
c gate 58 25 35 0
25 -58 0
35 -58 0
-25 -35 58 0
c gate 59 44 -58 0
44 -59 0
-58 -59 0
-44 58 59 0
c gate 60 -2 -13 0
-2 -60 0
-13 -60 0
2 13 60 0
c gate 61 11 22 0
11 -61 0
22 -61 0
-11 -22 61 0
c gate 62 -31 -61 0
-31 -62 0
-61 -62 0
31 61 62 0
c gate 63 -60 62 0
-60 -63 0
62 -63 0
60 -62 63 0
c gate 64 2 13 0
2 -64 0
13 -64 0
-2 -13 64 0
c gate 65 -26 -64 0
-26 -65 0
-64 -65 0
26 64 65 0
c gate 66 30 65 0
30 -66 0
65 -66 0
-30 -65 66 0
c gate 67 47 66 0
47 -67 0
66 -67 0
-47 -66 67 0
c gate 68 63 67 0
63 -68 0
67 -68 0
-63 -67 68 0
c gate 69 -59 68 0
-59 -69 0
68 -69 0
59 -68 69 0
c gate 70 -57 69 0
-57 -70 0
69 -70 0
57 -69 70 0
c gate 71 -25 -70 0
-25 -71 0
-70 -71 0
25 70 71 0
c PO
-71 0
